<number of tasks>
30

<cycle time>
54

<task times>
1 8
2 7
3 19
4 10
5 2
6 6
7 14
8 10
9 1
10 4
11 14
12 15
13 5
14 12
15 9
16 10
17 2
18 10
19 18
20 16
21 21
22 14
23 16
24 7
25 17
26 9
27 25
28 7
29 14
30 2

<precedence relations>
1,4
1,5
2,11
2,12
3,16
3,17
4,7
5,6
6,7
7,8
8,9
9,26
10,24
12,13
13,14
14,15
14,20
15,22
16,20
17,18
18,19
20,21
20,24
21,22
22,23
23,27
24,25
25,26
26,27
27,28
27,29
29,30

<setup times forward>
1,4:4
1,5:4
1,10:1
1,11:2
1,14:4
1,15:1
1,16:4
1,17:4
1,18:4
1,19:1
1,20:1
1,21:1
1,22:2
1,23:2
1,24:1
1,25:1
2,4:4
2,5:4
2,6:4
2,7:1
2,8:2
2,9:2
2,10:1
2,11:2
2,16:4
2,17:4
2,18:4
2,19:1
3,4:4
3,5:4
3,6:4
3,7:1
3,8:2
3,9:2
3,10:1
3,11:2
3,14:4
3,15:1
3,16:4
3,17:4
4,2:4
4,3:4
4,7:5
4,10:5
4,11:2
4,12:4
4,13:4
4,15:3
4,19:5
4,20:5
4,21:3
4,22:6
4,23:6
4,24:3
4,25:3
5,2:4
5,3:4
5,10:5
5,11:2
5,12:4
5,13:4
5,15:3
5,19:5
5,20:5
5,21:3
5,22:6
5,23:6
5,24:3
5,25:3
6,2:4
6,3:4
6,7:5
6,10:5
6,11:2
6,12:4
6,13:4
6,15:3
6,19:5
6,20:5
6,21:3
6,22:6
6,23:6
6,24:3
6,25:3
7,2:1
7,3:1
7,8:1
7,11:3
7,12:1
7,13:1
7,14:5
7,15:2
7,16:5
7,17:5
7,18:5
7,21:2
7,22:1
7,23:1
7,24:2
7,25:2
8,2:2
8,3:2
8,10:1
8,11:4
8,12:2
8,13:2
8,14:6
8,15:3
8,16:6
8,17:6
8,18:6
8,19:1
8,20:1
8,21:3
8,24:3
8,25:3
9,2:2
9,3:2
9,10:1
9,11:4
9,12:2
9,13:2
9,14:6
9,15:3
9,16:6
9,17:6
9,18:6
9,19:1
9,20:1
9,21:3
9,24:3
9,25:3
10,1:1
10,2:1
10,3:1
10,4:5
10,5:5
10,6:5
10,8:1
10,9:1
10,11:3
10,12:1
10,13:1
10,14:5
10,15:2
10,16:5
10,17:5
10,18:5
10,21:2
10,22:1
10,23:1
10,24:2
11,1:2
11,3:2
11,4:2
11,5:2
11,6:2
11,7:3
11,8:4
11,9:4
11,10:3
11,12:2
11,13:2
11,14:2
11,15:1
11,16:2
11,17:2
11,18:2
11,19:3
11,20:3
11,21:1
11,22:4
11,23:4
11,24:1
11,25:1
11,26:4
11,27:2
11,28:2
11,29:2
11,30:2
12,4:4
12,5:4
12,6:4
12,7:1
12,8:2
12,9:2
12,10:1
12,11:2
12,16:4
12,17:4
12,18:4
12,19:1
13,4:4
13,5:4
13,6:4
13,7:1
13,8:2
13,9:2
13,10:1
13,11:2
13,14:4
13,16:4
13,17:4
13,18:4
13,19:1
14,1:4
14,3:4
14,7:5
14,8:6
14,9:6
14,10:5
14,11:2
14,15:3
14,19:5
14,20:5
15,1:1
15,3:1
15,4:3
15,5:3
15,6:3
15,7:2
15,8:3
15,9:3
15,10:2
15,11:1
15,16:3
15,17:3
15,18:3
15,19:2
15,20:2
15,22:3
15,26:3
16,1:4
16,2:4
16,7:5
16,8:6
16,9:6
16,10:5
16,11:2
16,12:4
16,13:4
16,15:3
16,19:5
16,20:5
17,1:4
17,2:4
17,7:5
17,8:6
17,9:6
17,10:5
17,11:2
17,12:4
17,13:4
17,15:3
17,20:5
17,21:3
17,22:6
17,23:6
17,24:3
17,25:3
17,26:6
17,27:4
17,28:4
17,29:4
17,30:4
18,1:4
18,2:4
18,7:5
18,8:6
18,9:6
18,10:5
18,11:2
18,12:4
18,13:4
18,15:3
18,19:5
18,20:5
18,21:3
18,22:6
18,23:6
18,24:3
18,25:3
18,26:6
18,27:4
18,28:4
18,29:4
18,30:4
19,1:1
19,2:1
19,4:5
19,5:5
19,6:5
19,8:1
19,9:1
19,11:3
19,12:1
19,13:1
19,14:5
19,15:2
19,16:5
19,21:2
19,22:1
19,23:1
19,24:2
19,25:2
19,26:1
19,27:1
19,28:1
19,29:1
19,30:1
20,1:1
20,4:5
20,5:5
20,6:5
20,8:1
20,9:1
20,11:3
20,15:2
20,17:5
20,18:5
20,21:2
20,24:2
21,1:1
21,4:3
21,5:3
21,6:3
21,7:2
21,8:3
21,9:3
21,10:2
21,11:1
21,17:3
21,18:3
21,19:2
21,22:3
21,26:3
22,1:2
22,4:6
22,5:6
22,6:6
22,7:1
22,10:1
22,11:4
22,17:6
22,18:6
22,19:1
22,24:3
22,25:3
23,1:2
23,4:6
23,5:6
23,6:6
23,7:1
23,10:1
23,11:4
23,17:6
23,18:6
23,19:1
23,24:3
23,25:3
23,27:2
24,1:1
24,4:3
24,5:3
24,6:3
24,7:2
24,8:3
24,9:3
24,11:1
24,17:3
24,18:3
24,19:2
24,22:3
24,23:3
25,1:1
25,4:3
25,5:3
25,6:3
25,7:2
25,8:3
25,9:3
25,11:1
25,17:3
25,18:3
25,19:2
25,22:3
25,23:3
25,26:3
26,11:4
26,15:3
26,17:6
26,18:6
26,19:1
26,21:3
26,27:2
27,11:2
27,17:4
27,18:4
27,19:1
28,11:2
28,17:4
28,18:4
28,19:1
29,11:2
29,17:4
29,18:4
29,19:1
30,11:2
30,17:4
30,18:4
30,19:1

<setup times backward>
1,10:1
1,19:1
1,20:1
1,22:2
1,23:2
2,7:1
2,8:2
2,9:2
2,10:1
2,19:1
3,7:1
3,8:2
3,9:2
3,10:1
4,1:4
4,2:4
4,3:4
4,10:5
4,11:2
4,12:4
4,13:4
4,15:3
4,19:5
4,20:5
4,21:3
4,22:6
4,23:6
4,24:3
4,25:3
5,1:4
5,2:4
5,3:4
5,10:5
5,11:2
5,12:4
5,13:4
5,15:3
5,19:5
5,20:5
5,21:3
5,22:6
5,23:6
5,24:3
5,25:3
6,1:4
6,2:4
6,3:4
6,10:5
6,11:2
6,12:4
6,13:4
6,15:3
6,19:5
6,20:5
6,21:3
6,22:6
6,23:6
6,24:3
6,25:3
7,22:1
7,23:1
10,8:1
10,9:1
10,22:1
10,23:1
11,1:2
11,2:2
11,3:2
11,7:3
11,8:4
11,9:4
11,10:3
11,12:2
11,13:2
11,15:1
11,19:3
11,20:3
11,21:1
11,22:4
11,23:4
11,24:1
11,25:1
11,26:4
11,27:2
11,28:2
11,29:2
11,30:2
12,7:1
12,8:2
12,9:2
12,10:1
12,19:1
13,7:1
13,8:2
13,9:2
13,10:1
13,19:1
14,1:4
14,2:4
14,3:4
14,7:5
14,8:6
14,9:6
14,10:5
14,11:2
14,12:4
14,13:4
14,19:5
15,1:1
15,2:1
15,3:1
15,7:2
15,8:3
15,9:3
15,10:2
15,12:1
15,13:1
15,19:2
15,20:2
15,26:3
16,1:4
16,2:4
16,3:4
16,7:5
16,8:6
16,9:6
16,10:5
16,11:2
16,12:4
16,13:4
16,15:3
16,19:5
17,1:4
17,2:4
17,3:4
17,7:5
17,8:6
17,9:6
17,10:5
17,11:2
17,12:4
17,13:4
17,15:3
17,20:5
17,21:3
17,22:6
17,23:6
17,24:3
17,25:3
17,26:6
17,27:4
17,28:4
17,29:4
17,30:4
18,1:4
18,2:4
18,3:4
18,7:5
18,8:6
18,9:6
18,10:5
18,11:2
18,12:4
18,13:4
18,15:3
18,20:5
18,21:3
18,22:6
18,23:6
18,24:3
18,25:3
18,26:6
18,27:4
18,28:4
18,29:4
18,30:4
19,8:1
19,9:1
19,22:1
19,23:1
19,26:1
20,8:1
20,9:1
21,1:1
21,2:1
21,3:1
21,7:2
21,8:3
21,9:3
21,10:2
21,12:1
21,13:1
21,19:2
21,20:2
21,26:3
24,1:1
24,2:1
24,3:1
24,7:2
24,8:3
24,9:3
24,10:2
24,12:1
24,13:1
24,19:2
24,20:2
24,22:3
24,23:3
25,1:1
25,2:1
25,3:1
25,7:2
25,8:3
25,9:3
25,10:2
25,12:1
25,13:1
25,19:2
25,20:2
25,22:3
25,23:3
27,7:1
27,8:2
27,9:2
27,10:1
27,19:1
27,20:1
27,22:2
27,23:2
27,26:2
28,7:1
28,8:2
28,9:2
28,10:1
28,19:1
28,20:1
28,22:2
28,23:2
28,26:2
29,7:1
29,8:2
29,9:2
29,10:1
29,19:1
29,20:1
29,22:2
29,23:2
29,26:2
30,7:1
30,8:2
30,9:2
30,10:1
30,19:1
30,20:1
30,22:2
30,23:2
30,26:2

<end>

<optimal SALBP-1 value>
7


<rand seed>
467321153

<Lower Bounds>
Lm1=6
Lms1=6
Lm2=0
Lm3=2
Lm4=6
Best=6

<Optimal Stations (Iterations: 10)>
8
